(set-info :status unsat)
(declare-datatypes ((T 0)) ((
  (f0)
  (f1 (proj0f1 T))
  (f2 (proj0f2 T) (proj1f2 T) (proj2f2 T) (proj3f2 T))
  (f3 (proj0f3 T) (proj1f3 T) (proj2f3 T) (proj3f3 T))
  (f4 (proj0f4 T) (proj1f4 T) (proj2f4 T) (proj3f4 T)))))
(assert (exists ((y2297 T) (y2296 T) (y2295 T) (y2311 T) (y2312 T) (y2299 T) (y2298 T) (y2314 T) (y2313 T) (y2310 T) (y2309 T) (y2308 T) (y2305 T) (y2304 T) (y2307 T) (y2306 T) (y2301 T) (y2300 T) (y2303 T) (y2302 T)) 
  (or 
    (and (= y2295 (f1 (f4 y2296 y2295 PLACEHOLDER PLACEHOLDER))) (= y2296 (f2 y2295 PLACEHOLDER PLACEHOLDER PLACEHOLDER))) 
    (and (= y2297 (f2 y2298 PLACEHOLDER (f1 PLACEHOLDER) PLACEHOLDER)) (= y2298 (f4 y2297 PLACEHOLDER y2297 PLACEHOLDER))) 
    (and (= y2299 (f3 y2300 PLACEHOLDER (f3 PLACEHOLDER PLACEHOLDER PLACEHOLDER PLACEHOLDER) PLACEHOLDER)) (= y2300 (f3 y2299 PLACEHOLDER PLACEHOLDER PLACEHOLDER))) (= y2301 (f2 y2301 PLACEHOLDER y2301 PLACEHOLDER)) (= y2302 (f3 (f1 (f4 (f1 (f4 y2302 PLACEHOLDER PLACEHOLDER PLACEHOLDER)) (f1 PLACEHOLDER) (f1 PLACEHOLDER) (f1 (f3 PLACEHOLDER PLACEHOLDER PLACEHOLDER PLACEHOLDER)))) y2302 (f4 PLACEHOLDER PLACEHOLDER PLACEHOLDER PLACEHOLDER) (f1 PLACEHOLDER))) 
    (and (= y2303 (f2 y2304 (f4 PLACEHOLDER PLACEHOLDER PLACEHOLDER PLACEHOLDER) (f1 PLACEHOLDER) (f2 PLACEHOLDER (f1 PLACEHOLDER) (f3 PLACEHOLDER PLACEHOLDER PLACEHOLDER PLACEHOLDER) (f1 PLACEHOLDER)))) (= y2304 (f3 (f2 (f4 y2303 PLACEHOLDER PLACEHOLDER PLACEHOLDER) (f1 PLACEHOLDER) PLACEHOLDER (f4 PLACEHOLDER PLACEHOLDER PLACEHOLDER PLACEHOLDER)) y2305 PLACEHOLDER PLACEHOLDER)) (= y2305 (f4 y2306 (f3 PLACEHOLDER PLACEHOLDER PLACEHOLDER PLACEHOLDER) (f3 PLACEHOLDER PLACEHOLDER PLACEHOLDER PLACEHOLDER) (f3 PLACEHOLDER PLACEHOLDER PLACEHOLDER PLACEHOLDER))) (= y2306 (f3 y2303 PLACEHOLDER PLACEHOLDER PLACEHOLDER))) 
    (and (= y2307 (f3 y2307 y2308 (f4 (f4 PLACEHOLDER PLACEHOLDER (f3 PLACEHOLDER PLACEHOLDER PLACEHOLDER PLACEHOLDER) (f3 PLACEHOLDER PLACEHOLDER PLACEHOLDER PLACEHOLDER)) PLACEHOLDER (f2 (f3 PLACEHOLDER PLACEHOLDER PLACEHOLDER PLACEHOLDER) (f1 PLACEHOLDER) (f3 PLACEHOLDER PLACEHOLDER PLACEHOLDER PLACEHOLDER) (f4 PLACEHOLDER PLACEHOLDER PLACEHOLDER PLACEHOLDER)) (f1 PLACEHOLDER)) (f3 PLACEHOLDER PLACEHOLDER PLACEHOLDER PLACEHOLDER))) (= y2308 (f1 y2309)) (= y2309 (f3 y2310 PLACEHOLDER (f2 PLACEHOLDER PLACEHOLDER PLACEHOLDER PLACEHOLDER) (f1 PLACEHOLDER))) (= y2310 (f4 y2307 PLACEHOLDER PLACEHOLDER PLACEHOLDER))) 
    (and (= y2311 (f2 (f4 y2311 PLACEHOLDER PLACEHOLDER PLACEHOLDER) y2312 (f1 (f4 PLACEHOLDER PLACEHOLDER PLACEHOLDER PLACEHOLDER)) PLACEHOLDER)) (= y2312 (f2 y2313 PLACEHOLDER (f1 (f3 PLACEHOLDER PLACEHOLDER PLACEHOLDER PLACEHOLDER)) PLACEHOLDER)) (= y2313 (f3 y2314 PLACEHOLDER PLACEHOLDER PLACEHOLDER)) (= y2314 (f2 y2311 PLACEHOLDER PLACEHOLDER PLACEHOLDER))))))
(check-sat)
